CLT07
Position Depot: Random
Horizon for Depot: Large
Position of customers: Cluster
Distribution of the demand: Large
Width of time windows: Tight
Distribution of the service: Large

VEHICLE 
NUMBER 	 CAPACITY 
 5 	 	 907 
 
CUSTOMER
CUST NO. 	 XCOORD.  	 YCOORD. 	 DEMAND 	 READY TIME 	 DUE DATE 	 SERVICE TIME 
 0 	 	 747 	 	 429 	 	 0 	 	 0 	 	 3072 	 	 0 
  1 	 	 514 	 	 233 	 	 9 	 	 2398 	 	 2501 	 	 200 
  2 	 	 315 	 	 380 	 	 41 	 	 1686 	 	 1738 	 	 171 
  3 	 	 610 	 	 790 	 	 68 	 	 2632 	 	 2758 	 	 179 
  4 	 	 1 	 	 588 	 	 33 	 	 1861 	 	 1981 	 	 141 
  5 	 	 856 	 	 643 	 	 92 	 	 1827 	 	 1985 	 	 109 
  6 	 	 232 	 	 255 	 	 85 	 	 517 	 	 597 	 	 167 
  7 	 	 103 	 	 460 	 	 27 	 	 2062 	 	 2186 	 	 106 
  8 	 	 846 	 	 637 	 	 90 	 	 2206 	 	 2261 	 	 145 
  9 	 	 460 	 	 214 	 	 73 	 	 256 	 	 394 	 	 155 
  10 	 	 547 	 	 208 	 	 17 	 	 1260 	 	 1412 	 	 175 
  11 	 	 288 	 	 325 	 	 38 	 	 1688 	 	 1858 	 	 182 
  12 	 	 619 	 	 802 	 	 6 	 	 796 	 	 943 	 	 105 
  13 	 	 518 	 	 229 	 	 74 	 	 2967 	 	 3072 	 	 185 
  14 	 	 92 	 	 514 	 	 55 	 	 2771 	 	 2956 	 	 102 
  15 	 	 601 	 	 810 	 	 33 	 	 2554 	 	 2631 	 	 159 
  16 	 	 803 	 	 528 	 	 16 	 	 2399 	 	 2513 	 	 128 
  17 	 	 12 	 	 627 	 	 26 	 	 2449 	 	 2535 	 	 176 
  18 	 	 6 	 	 621 	 	 76 	 	 789 	 	 842 	 	 188 
  19 	 	 135 	 	 391 	 	 36 	 	 2268 	 	 2430 	 	 189 
  20 	 	 81 	 	 460 	 	 7 	 	 2148 	 	 2337 	 	 124 
  21 	 	 542 	 	 201 	 	 54 	 	 251 	 	 337 	 	 142 
  22 	 	 236 	 	 287 	 	 98 	 	 2877 	 	 3072 	 	 126 
  23 	 	 250 	 	 244 	 	 95 	 	 2340 	 	 2461 	 	 115 
  24 	 	 360 	 	 356 	 	 42 	 	 2897 	 	 2967 	 	 182 
  25 	 	 658 	 	 812 	 	 93 	 	 600 	 	 758 	 	 147 
  26 	 	 316 	 	 372 	 	 57 	 	 1385 	 	 1488 	 	 199 
  27 	 	 576 	 	 231 	 	 18 	 	 895 	 	 1053 	 	 139 
  28 	 	 428 	 	 257 	 	 72 	 	 1106 	 	 1212 	 	 173 
  29 	 	 944 	 	 709 	 	 25 	 	 2413 	 	 2472 	 	 116 
  30 	 	 620 	 	 793 	 	 95 	 	 1155 	 	 1350 	 	 164 
  31 	 	 150 	 	 436 	 	 96 	 	 2591 	 	 2752 	 	 169 
  32 	 	 7 	 	 633 	 	 22 	 	 2747 	 	 2936 	 	 183 
  33 	 	 793 	 	 625 	 	 43 	 	 157 	 	 221 	 	 103 
  34 	 	 115 	 	 472 	 	 30 	 	 605 	 	 731 	 	 114 
  35 	 	 510 	 	 215 	 	 38 	 	 580 	 	 631 	 	 145 
  36 	 	 875 	 	 645 	 	 64 	 	 1938 	 	 2050 	 	 197 
  37 	 	 632 	 	 721 	 	 64 	 	 1719 	 	 1881 	 	 109 
  38 	 	 320 	 	 314 	 	 2 	 	 2471 	 	 2573 	 	 144 
  39 	 	 875 	 	 636 	 	 1 	 	 681 	 	 802 	 	 140 
  40 	 	 267 	 	 395 	 	 63 	 	 1479 	 	 1668 	 	 109 
  41 	 	 332 	 	 368 	 	 21 	 	 1643 	 	 1829 	 	 113 
  42 	 	 564 	 	 239 	 	 67 	 	 565 	 	 696 	 	 176 
  43 	 	 316 	 	 234 	 	 55 	 	 797 	 	 932 	 	 116 
  44 	 	 115 	 	 453 	 	 70 	 	 1031 	 	 1173 	 	 128 
  45 	 	 29 	 	 515 	 	 3 	 	 1654 	 	 1819 	 	 158 
  46 	 	 596 	 	 887 	 	 25 	 	 1524 	 	 1723 	 	 149 
  47 	 	 825 	 	 601 	 	 95 	 	 1978 	 	 2173 	 	 125 
  48 	 	 43 	 	 531 	 	 25 	 	 1474 	 	 1559 	 	 137 
  49 	 	 140 	 	 353 	 	 12 	 	 2782 	 	 2935 	 	 158 
  50 	 	 157 	 	 363 	 	 80 	 	 2952 	 	 3064 	 	 131 
  51 	 	 257 	 	 479 	 	 33 	 	 476 	 	 541 	 	 158 
  52 	 	 4 	 	 676 	 	 98 	 	 760 	 	 861 	 	 157 
  53 	 	 936 	 	 598 	 	 91 	 	 1523 	 	 1624 	 	 145 
  54 	 	 42 	 	 311 	 	 16 	 	 2290 	 	 2452 	 	 172 
  55 	 	 322 	 	 322 	 	 19 	 	 2794 	 	 2949 	 	 139 
  56 	 	 960 	 	 571 	 	 55 	 	 1375 	 	 1499 	 	 106 
  57 	 	 65 	 	 461 	 	 11 	 	 1412 	 	 1469 	 	 171 
  58 	 	 246 	 	 229 	 	 59 	 	 2368 	 	 2474 	 	 145 
  59 	 	 256 	 	 295 	 	 40 	 	 2918 	 	 3072 	 	 162 
  60 	 	 23 	 	 619 	 	 65 	 	 885 	 	 1049 	 	 156 
  61 	 	 570 	 	 239 	 	 62 	 	 1519 	 	 1716 	 	 165 
  62 	 	 49 	 	 650 	 	 11 	 	 2366 	 	 2554 	 	 154 
  63 	 	 904 	 	 649 	 	 49 	 	 781 	 	 921 	 	 179 
  64 	 	 279 	 	 244 	 	 36 	 	 436 	 	 553 	 	 129 
  65 	 	 813 	 	 566 	 	 51 	 	 1705 	 	 1835 	 	 113 
  66 	 	 298 	 	 415 	 	 98 	 	 1355 	 	 1551 	 	 158 
  67 	 	 235 	 	 519 	 	 79 	 	 1311 	 	 1405 	 	 137 
  68 	 	 553 	 	 825 	 	 12 	 	 2117 	 	 2255 	 	 110 
  69 	 	 699 	 	 749 	 	 64 	 	 569 	 	 747 	 	 132 
  70 	 	 253 	 	 351 	 	 4 	 	 1811 	 	 2004 	 	 169 
  71 	 	 593 	 	 880 	 	 37 	 	 371 	 	 524 	 	 153 
  72 	 	 325 	 	 355 	 	 77 	 	 1930 	 	 1982 	 	 118 
  73 	 	 473 	 	 333 	 	 49 	 	 468 	 	 654 	 	 108 
  74 	 	 431 	 	 213 	 	 16 	 	 436 	 	 608 	 	 163 
  75 	 	 578 	 	 814 	 	 52 	 	 960 	 	 1105 	 	 176 
  76 	 	 222 	 	 232 	 	 83 	 	 561 	 	 616 	 	 191 
  77 	 	 153 	 	 224 	 	 60 	 	 2934 	 	 3068 	 	 154 
  78 	 	 37 	 	 433 	 	 58 	 	 722 	 	 781 	 	 142 
  79 	 	 773 	 	 712 	 	 65 	 	 1648 	 	 1811 	 	 172 
  80 	 	 190 	 	 279 	 	 59 	 	 1498 	 	 1579 	 	 176 
  81 	 	 411 	 	 310 	 	 52 	 	 1114 	 	 1168 	 	 114 
  82 	 	 44 	 	 562 	 	 79 	 	 606 	 	 787 	 	 194 
  83 	 	 515 	 	 284 	 	 68 	 	 881 	 	 985 	 	 101 
  84 	 	 386 	 	 349 	 	 21 	 	 1993 	 	 2061 	 	 146 
  85 	 	 169 	 	 441 	 	 83 	 	 572 	 	 635 	 	 137 
  86 	 	 473 	 	 211 	 	 60 	 	 2471 	 	 2528 	 	 144 
  87 	 	 704 	 	 635 	 	 6 	 	 2874 	 	 3072 	 	 170 
  88 	 	 323 	 	 449 	 	 21 	 	 1711 	 	 1856 	 	 101 
  89 	 	 219 	 	 269 	 	 35 	 	 520 	 	 606 	 	 148 
  90 	 	 581 	 	 261 	 	 59 	 	 1756 	 	 1875 	 	 168 
  91 	 	 218 	 	 240 	 	 5 	 	 608 	 	 801 	 	 156 
  92 	 	 214 	 	 297 	 	 63 	 	 530 	 	 604 	 	 134 
  93 	 	 624 	 	 265 	 	 24 	 	 2452 	 	 2598 	 	 196 
  94 	 	 50 	 	 434 	 	 75 	 	 1559 	 	 1679 	 	 114 
  95 	 	 439 	 	 310 	 	 86 	 	 366 	 	 469 	 	 198 
  96 	 	 515 	 	 780 	 	 80 	 	 1897 	 	 2045 	 	 114 
  97 	 	 90 	 	 489 	 	 97 	 	 571 	 	 725 	 	 150 
  98 	 	 582 	 	 922 	 	 37 	 	 2148 	 	 2199 	 	 187 
  99 	 	 687 	 	 797 	 	 68 	 	 2298 	 	 2412 	 	 164 
  100 	 	 463 	 	 262 	 	 79 	 	 1553 	 	 1713 	 	 193 
 